c Created with the Wolfram Language : www.wolfram.com
c 
p edge 80 470
e 1 3
e 4 7
e 1 8
e 5 8
e 6 9
e 7 9
e 1 11
e 1 12
e 8 12
e 4 13
e 7 13
e 8 13
e 10 13
e 8 14
e 10 14
e 11 15
e 12 15
e 4 16
e 9 16
e 14 17
e 1 18
e 6 18
e 8 18
e 9 18
e 10 18
e 15 18
e 12 19
e 14 19
e 18 19
e 3 20
e 6 20
e 17 21
e 13 22
e 19 22
e 20 22
e 9 23
e 13 23
e 19 23
e 21 23
e 2 24
e 4 24
e 5 24
e 10 24
e 13 24
e 19 24
e 5 25
e 8 25
e 14 25
e 18 25
e 3 26
e 13 26
e 1 27
e 18 27
e 1 28
e 7 28
e 9 28
e 17 28
e 25 28
e 2 29
e 8 29
e 19 29
e 25 29
e 27 29
e 9 30
e 11 30
e 14 30
e 17 30
e 27 30
e 29 30
e 21 31
e 22 31
e 30 31
e 11 32
e 13 32
e 28 32
e 1 33
e 8 33
e 17 33
e 18 33
e 27 33
e 28 33
e 29 33
e 30 33
e 5 34
e 12 34
e 23 34
e 10 35
e 21 35
e 25 35
e 32 35
e 34 35
e 7 36
e 22 36
e 30 36
e 32 36
e 34 36
e 35 36
e 4 37
e 7 37
e 17 37
e 3 38
e 9 38
e 12 38
e 15 38
e 22 38
e 11 39
e 13 39
e 14 39
e 27 39
e 35 39
e 13 40
e 19 40
e 21 40
e 22 40
e 3 41
e 11 41
e 18 41
e 26 41
e 29 41
e 31 41
e 40 41
e 2 42
e 4 42
e 6 42
e 9 42
e 21 42
e 22 42
e 23 42
e 26 42
e 31 42
e 34 42
e 36 42
e 6 43
e 32 43
e 33 43
e 42 43
e 1 44
e 3 44
e 8 44
e 19 44
e 39 44
e 43 44
e 1 45
e 3 45
e 9 45
e 14 45
e 37 45
e 1 46
e 6 46
e 25 46
e 38 46
e 41 46
e 43 46
e 14 47
e 22 47
e 23 47
e 30 47
e 31 47
e 7 48
e 9 48
e 10 48
e 22 48
e 27 48
e 33 48
e 41 48
e 45 48
e 7 49
e 13 49
e 20 49
e 23 49
e 33 49
e 36 49
e 38 49
e 39 49
e 5 50
e 7 50
e 12 50
e 26 50
e 28 50
e 30 50
e 36 50
e 38 50
e 42 50
e 1 51
e 8 51
e 15 51
e 39 51
e 40 51
e 48 51
e 2 52
e 3 52
e 4 52
e 5 52
e 12 52
e 34 52
e 39 52
e 50 52
e 2 53
e 9 53
e 19 53
e 24 53
e 29 53
e 30 53
e 31 53
e 35 53
e 40 53
e 7 54
e 8 54
e 14 54
e 18 54
e 28 54
e 47 54
e 48 54
e 51 54
e 2 55
e 4 55
e 11 55
e 15 55
e 30 55
e 32 55
e 33 55
e 34 55
e 53 55
e 20 56
e 32 56
e 42 56
e 46 56
e 52 56
e 53 56
e 3 57
e 7 57
e 16 57
e 21 57
e 25 57
e 34 57
e 37 57
e 40 57
e 44 57
e 1 58
e 13 58
e 21 58
e 38 58
e 42 58
e 45 58
e 38 59
e 45 59
e 6 60
e 20 60
e 24 60
e 29 60
e 35 60
e 36 60
e 38 60
e 41 60
e 42 60
e 48 60
e 56 60
e 5 61
e 6 61
e 12 61
e 16 61
e 22 61
e 26 61
e 38 61
e 39 61
e 43 61
e 50 61
e 57 61
e 6 62
e 7 62
e 13 62
e 15 62
e 21 62
e 30 62
e 46 62
e 49 62
e 1 63
e 5 63
e 12 63
e 23 63
e 32 63
e 37 63
e 38 63
e 52 63
e 61 63
e 5 64
e 6 64
e 14 64
e 28 64
e 29 64
e 38 64
e 43 64
e 44 64
e 47 64
e 54 64
e 20 65
e 27 65
e 36 65
e 40 65
e 46 65
e 51 65
e 64 65
e 8 66
e 25 66
e 31 66
e 36 66
e 41 66
e 45 66
e 47 66
e 48 66
e 55 66
e 57 66
e 59 66
e 61 66
e 63 66
e 3 67
e 11 67
e 24 67
e 28 67
e 29 67
e 45 67
e 54 67
e 61 67
e 63 67
e 1 68
e 8 68
e 14 68
e 34 68
e 35 68
e 40 68
e 60 68
e 4 69
e 11 69
e 15 69
e 17 69
e 22 69
e 26 69
e 29 69
e 33 69
e 37 69
e 39 69
e 56 69
e 57 69
e 59 69
e 68 69
e 5 70
e 6 70
e 13 70
e 20 70
e 24 70
e 25 70
e 29 70
e 30 70
e 44 70
e 45 70
e 52 70
e 55 70
e 59 70
e 61 70
e 2 71
e 8 71
e 23 71
e 34 71
e 52 71
e 55 71
e 57 71
e 2 72
e 9 72
e 13 72
e 23 72
e 24 72
e 26 72
e 28 72
e 36 72
e 44 72
e 65 72
e 6 73
e 8 73
e 16 73
e 17 73
e 21 73
e 25 73
e 28 73
e 35 73
e 41 73
e 45 73
e 46 73
e 5 74
e 6 74
e 9 74
e 15 74
e 22 74
e 34 74
e 45 74
e 48 74
e 55 74
e 73 74
e 13 75
e 16 75
e 26 75
e 28 75
e 32 75
e 43 75
e 46 75
e 57 75
e 65 75
e 74 75
e 1 76
e 2 76
e 4 76
e 11 76
e 12 76
e 27 76
e 44 76
e 46 76
e 47 76
e 55 76
e 59 76
e 60 76
e 65 76
e 4 77
e 26 77
e 33 77
e 35 77
e 42 77
e 43 77
e 55 77
e 59 77
e 62 77
e 73 77
e 8 78
e 10 78
e 15 78
e 34 78
e 35 78
e 47 78
e 50 78
e 52 78
e 64 78
e 68 78
e 69 78
e 72 78
e 73 78
e 3 79
e 14 79
e 27 79
e 29 79
e 35 79
e 38 79
e 43 79
e 46 79
e 51 79
e 72 79
e 74 79
e 76 79
e 4 80
e 9 80
e 15 80
e 21 80
e 26 80
e 28 80
e 30 80
e 41 80
e 47 80
e 56 80
e 57 80
e 62 80
e 76 80
e 77 80
e 78 80
